TCS_Benchmarks/redos_fix/regexlib1_output_distinct_3303_3302_28_0.smt2
(set-logic QF_S)
(declare-const x String)
(assert (str.in.re x (re.inter  (re.++ (re.*  (re.union  (re.++  (str.to.re "\u{5c}")  (str.to.re "\u{2f}")) (re.opt (re.union (re.range "\u{00}" "\u{09}") (re.range "\u{0b}" "\u{0c}") (re.range "\u{0e}" "\u{84}") (re.range "\u{86}" "\u{ff}")) )) )  (re.union (str.to_re "") (re.union  (re.++  (re.union  (str.to.re "\u{67}") (re.union  (str.to.re "\u{69}")  (str.to.re "\u{6d}")))  (str.to_re "")) (re.union  (re.++  (re.union  (str.to.re "\u{67}") (re.union  (str.to.re "\u{69}")  (str.to.re "\u{6d}")))   (re.++  (re.union  (str.to.re "\u{67}") (re.union  (str.to.re "\u{69}")  (str.to.re "\u{6d}")))  (str.to_re "")))  (re.++  (re.union  (str.to.re "\u{67}") (re.union  (str.to.re "\u{69}")  (str.to.re "\u{6d}")))   (re.++  (re.union  (str.to.re "\u{67}") (re.union  (str.to.re "\u{69}")  (str.to.re "\u{6d}")))   (re.++  (re.union  (str.to.re "\u{67}") (re.union  (str.to.re "\u{69}")  (str.to.re "\u{6d}")))  (str.to_re ""))))))))  (re.++ (re.*  (re.union  (re.++  (str.to.re "\u{5c}")  (str.to.re "\u{2f}")) (re.opt (re.union (re.range "\u{00}" "\u{09}") (re.range "\u{0b}" "\u{0c}") (re.range "\u{0e}" "\u{84}") (re.range "\u{86}" "\u{ff}")) )) ) (re.++  (str.to.re "\u{2f}")  (re.union (str.to_re "") (re.union  (re.++  (re.union  (str.to.re "\u{67}") (re.union  (str.to.re "\u{69}")  (str.to.re "\u{6d}")))  (str.to_re "")) (re.union  (re.++  (re.union  (str.to.re "\u{67}") (re.union  (str.to.re "\u{69}")  (str.to.re "\u{6d}")))   (re.++  (re.union  (str.to.re "\u{67}") (re.union  (str.to.re "\u{69}")  (str.to.re "\u{6d}")))  (str.to_re "")))  (re.++  (re.union  (str.to.re "\u{67}") (re.union  (str.to.re "\u{69}")  (str.to.re "\u{6d}")))   (re.++  (re.union  (str.to.re "\u{67}") (re.union  (str.to.re "\u{69}")  (str.to.re "\u{6d}")))   (re.++  (re.union  (str.to.re "\u{67}") (re.union  (str.to.re "\u{69}")  (str.to.re "\u{6d}")))  (str.to_re ""))))))))) )))
(check-sat)
(get-model)