TCS_Benchmarks/redos_fix/regexlib1_output_distinct_3303_3302_28_0.txt
(((\\\/)|.?)*)([gim]{0,3})
(((\\\/)|.?)*)(\/)([gim]{0,3})